100
1000
200
0 0
-34 15
-34 15
-34 15
-34 15
-34 15
-34 15
-34 15
-34 15
-34 15
-34 15
-34 15
-34 15
-34 15
-34 15
-34 15
-34 15
-34 15
-34 15
-34 15
-34 15
-6 15
-6 15
-6 15
-6 15
-6 15
-6 15
-6 15
-6 15
-6 15
-6 15
-6 15
-6 15
-6 15
-6 15
-6 15
-6 15
-6 15
-6 15
-6 15
-6 15
-24 1
-24 1
-24 1
-24 1
-24 1
-24 1
-24 1
-24 1
-24 1
-24 1
-24 1
-24 1
-24 1
-24 1
-24 1
-24 1
-24 1
-24 1
-24 1
-24 1
38 -13
38 -13
38 -13
38 -13
38 -13
38 -13
38 -13
38 -13
38 -13
38 -13
38 -13
38 -13
38 -13
38 -13
38 -13
38 -13
38 -13
38 -13
38 -13
38 -13
13 6
13 6
13 6
13 6
13 6
13 6
13 6
13 6
13 6
13 6
13 6
13 6
13 6
13 6
13 6
13 6
13 6
13 6
13 6
13 6
17 -11
20 -40
10 -15
-22 -28
-9 -9
-19 40
-6 34
1 -10
20 -1
-11 15
7 -22
33 -5
-1 37
7 -10
-8 -21
25 -23
-35 28
15 -40
26 -9
11 -13
17 -11
20 -40
10 -15
-22 -28
-9 -9
-19 40
-6 34
1 -10
20 -1
-11 15
7 -22
33 -5
-1 37
7 -10
-8 -21
25 -23
-35 28
15 -40
26 -9
11 -13
17 -11
20 -40
10 -15
-22 -28
-9 -9
-19 40
-6 34
1 -10
20 -1
-11 15
7 -22
33 -5
-1 37
7 -10
-8 -21
25 -23
-35 28
15 -40
26 -9
11 -13
17 -11
20 -40
10 -15
-22 -28
-9 -9
-19 40
-6 34
1 -10
20 -1
-11 15
7 -22
33 -5
-1 37
7 -10
-8 -21
25 -23
-35 28
15 -40
26 -9
11 -13
17 -11
20 -40
10 -15
-22 -28
-9 -9
-19 40
-6 34
1 -10
20 -1
-11 15
7 -22
33 -5
-1 37
7 -10
-8 -21
25 -23
-35 28
15 -40
26 -9
11 -13
0 0 
56
56
55
57
56
52
53
53
56
56
53
54
56
60
60
59
56
52
55
56
51
51
57
56
51
56
57
56
52
52
59
54
60
55
56
53
56
60
60
52
51
57
57
51
56
60
55
57
52
52
55
51
56
56
56
56
51
54
56
57
56
52
56
53
59
59
54
54
55
52
56
51
59
57
52
55
53
51
59
55
56
60
52
59
52
60
53
55
57
52
51
59
57
56
59
53
52
53
51
60
56
56
55
57
56
52
53
53
56
56
53
54
56
60
60
59
56
52
55
56
51
51
57
56
51
56
57
56
52
52
59
54
60
55
56
53
56
60
60
52
51
57
57
51
56
60
55
57
52
52
55
51
56
56
56
56
51
54
56
57
56
52
56
53
59
59
54
54
55
52
56
51
59
57
52
55
53
51
59
55
56
60
52
59
52
60
53
55
57
52
51
59
57
56
59
53
52
53
51
60
